[1250, 1250, 1250, 1250, 1250, 1250, 1250, 1250, 1250, 1250, 2500, 2500, 2500, 2500, 2500, 2500, 2500, 2500, 2500, 2500, 5000, 5000, 5000, 5000, 5000, 5000, 5000, 5000, 5000, 5000, 10000, 10000, 10000, 10000, 10000, 10000, 10000, 10000, 10000, 10000, 20000, 20000, 20000, 20000, 20000, 20000, 20000, 20000, 20000, 20000]
